1 0 2 10 0 0 0 0 0 0
2 1 2 10 0 0 0
3 0 1 6 0 0 0 0 0 0
4 1 1 6 0 0 0 0 0 
5 0 2 30 0 0
6 1 2 30 0 0 0 0 0 0
7 0 3 15 0 0 0 
8 1 3 15 0 0 0 0
9 0 2 20 0 0 0 0 0 0
10 1 2 20 0 0 0 0 0 0
10 0 1 30 0
11 1 1 30 0 0 0 0
12 0 3 15 0 0 0 0 0 0
13 1 3 15 0 0 0 0
14 0 2 20 0 0 
15 1 2 20 0 0 0 0 0 0
16 0 3 10 0 0 0 0
17 1 3 10 0
18 0 1 6 0 0 0 0 0 0
19 1 1 6 0 0 0 0 0 0
20 0 2 30 0 0 0 0 0 0
21 1 2 30 0